CMPL model generation - running

CMPL version: 1.11.0
Authors: Thomas Schleiff, Mike Steglich
Distributed under the GPLv3 

create model instance ...
write model instance ...
CMPL model generation - finished

Solver - running


Welcome to IBM(R) ILOG(R) CPLEX(R) Interactive Optimizer 12.7.1.0
  with Simplex, Mixed Integer & Barrier Optimizers
5725-A06 5725-A29 5724-Y48 5724-Y49 5724-Y54 5724-Y55 5655-Y21
Copyright IBM Corp. 1988, 2017.  All Rights Reserved.

Type 'help' for a list of available commands.
Type 'help' followed by a command name for more
information on commands.

CPLEX> Specified objective sense: MINIMIZE
Selected objective  name:  line[1]
Selected RHS        name:  RHS
Selected bound      name:  BOUND
Problem '/tmp/cmpl.T24815.mps' read.
Read time = 0.05 sec. (8.20 ticks)
CPLEX> CPXPARAM_Read_APIEncoding                        "UTF-8"
Tried aggregator 3 times.
MIP Presolve eliminated 18922 rows and 30083 columns.
MIP Presolve modified 340 coefficients.
Aggregator did 886 substitutions.
Reduced MIP has 2547 rows, 3624 columns, and 10570 nonzeros.
Reduced MIP has 3456 binaries, 0 generals, 0 SOSs, and 0 indicators.
Presolve time = 0.06 sec. (42.64 ticks)
Found incumbent of value 2690.492186 after 0.11 sec. (76.91 ticks)
Probing time = 0.01 sec. (2.74 ticks)
Tried aggregator 1 time.
MIP Presolve eliminated 0 rows and 2 columns.
Reduced MIP has 2547 rows, 3622 columns, and 10566 nonzeros.
Reduced MIP has 3622 binaries, 0 generals, 0 SOSs, and 0 indicators.
Presolve time = 0.01 sec. (8.72 ticks)
Probing time = 0.01 sec. (2.79 ticks)
Clique table members: 4028.
MIP emphasis: balance optimality and feasibility.
MIP search method: dynamic search.
Parallel mode: none, using 1 thread.
Root relaxation solution time = 0.01 sec. (10.83 ticks)

        Nodes                                         Cuts/
   Node  Left     Objective  IInf  Best Integer    Best Bound    ItCnt     Gap

*     0+    0                         2690.4922        1.9686            99.93%
*     0     0      integral     0      727.6150      727.6150      599    0.00%
Elapsed time = 0.17 sec. (109.60 ticks, tree = 0.00 MB, solutions = 2)

Root node processing (before b&c):
  Real time             =    0.17 sec. (110.84 ticks)
Sequential b&c:
  Real time             =    0.00 sec. (0.00 ticks)
                          ------------
Total (root+branch&cut) =    0.17 sec. (110.84 ticks)

Solution pool: 2 solutions saved.

MIP - Integer optimal solution:  Objective =  7.2761504100e+02
Solution time =    0.17 sec.  Iterations = 599  Nodes = 0
Deterministic time = 110.94 ticks  (656.20 ticks/sec)

CPLEX> Incumbent solution written to file '/tmp/cmpl.T24815.gsol'.
CPLEX> 
CMPL: Time used for model generation: 0 seconds
CMPL: Time used for solving the model: 1 seconds


Solution written to ASCII file: results/output_generated_conf_0.9/2017-08-07-4/fair-nonlinear.sol

Solver - finished
